1 1
2 2
3 2
4 1
5 2
6 2
7 2
8 2
9 1
10 1
11 1
12 2
13 2
14 2
15 2
16 2
17 2
18 2
19 2
20 1
21 2
22 1
23 2
24 1
25 2
26 1
27 2
28 1
29 1
30 2
31 2
32 2
33 1
34 2
35 1
36 1
37 2
38 1
39 2
40 1
41 2
42 2
43 1
44 2
45 2
46 2
47 1
48 1
49 1
50 1
51 1
52 2
53 2
54 2
55 1
56 1
57 1
58 1
59 1
60 2
61 2
62 1
63 1
64 2
65 2
66 2
67 2
68 1
69 2
70 2
71 2
72 2
73 1
74 1
75 2
76 2
77 1
78 1
79 1
80 1
81 1
82 2
83 1
84 2
85 2
86 2
87 1
88 2
89 1
90 2
91 1
92 1
93 2
94 2
95 1
96 2
97 1
98 2
99 2
100 2
101 1
102 2
103 1
104 1
105 2
106 1
107 1
108 1
109 2
110 2
111 1
112 2
113 2
114 2
115 1
116 2
117 1
118 2
119 1
120 2
121 1
122 1
123 1
124 2
125 1
126 1
127 2
128 1
129 1
130 1
131 2
132 2
133 2
134 2
135 1
136 2
137 2
138 2
139 2
140 1
141 1
142 1
143 2
144 1
145 1
146 2
147 2
148 1
149 1
150 2
151 1
152 1
153 2
154 2
155 1
156 2
157 2
158 1
159 2
160 2
161 2
162 2
163 1
164 1
165 1
166 2
167 2
168 2
169 1
170 2
171 2
172 2
173 1
174 2
175 2
176 2
177 1
178 1
179 2
180 2
181 2
182 2
183 2
184 2
185 1
186 1
187 2
188 1
189 1
190 1
191 1
192 2
193 2
194 2
195 1
196 2
197 1
198 2
199 2
200 2
201 1
202 1
203 1
204 1
205 2
206 2
207 1
208 2
209 2
210 1
211 2
212 1
213 2
214 1
215 2
216 1
217 2
218 2
219 1
220 2
221 2
222 2
223 2
224 1
225 2
226 2
227 2
228 2
229 2
230 2
231 2
232 1
233 1
234 2
235 2
236 1
237 1
238 2
239 2
240 2
241 1
242 1
243 2
244 1
245 1
246 1
247 1
248 1
249 2
250 1
251 1
252 1
253 2
254 1
255 1
256 1
257 1
258 1
259 2
260 1
261 1
262 1
263 1
264 2
265 2
266 2
267 2
268 2
269 1
270 2
271 1
272 2
273 2
274 2
275 1
276 1
277 2
278 2
279 2
280 1
281 2
282 2
283 2
284 2
285 1
286 2
287 2
288 1
289 1
290 1
291 2
292 1
293 2
294 1
295 1
296 2
297 1
298 2
299 2
300 1
301 2
302 2
303 2
304 2
305 2
306 1
307 1
308 2
309 2
310 2
311 1
312 1
313 1
314 2
315 1
316 2
317 2
318 1
319 2
320 1
321 2
322 1
323 1
324 2
325 1
326 2
327 1
328 2
329 2
330 1
331 2
332 2
333 2
334 1
335 2
336 2
337 2
338 2
339 1
340 2
341 1
342 2
343 1
344 2
345 1
346 2
347 2
348 2
349 1
350 2
351 1
352 2
353 2
354 2
355 2
356 1
357 1
358 1
359 1
360 2
361 2
362 2
363 2
364 2
365 1
366 1
367 1
368 1
369 1
370 2
371 2
372 2
373 1
374 2
375 1
376 1
377 2
378 2
379 1
380 2
381 2
382 2
383 2
384 2
385 1
386 1
387 2
388 1
389 2
390 1
391 1
392 1
393 1
394 1
395 1
396 2
397 2
398 1
399 2
400 1
401 2
402 1
403 2
404 1
405 1
406 1
407 1
408 1
409 2
410 1
411 2
412 1
413 1
414 1
415 1
416 1
417 2
418 1
419 2
420 1
421 1
422 1
423 1
424 2
425 2
426 1
427 1
428 1
429 2
430 1
431 2
432 1
433 1
434 2
435 1
436 2
437 1
438 1
439 2
440 1
441 1
442 2
443 2
444 1
445 1
446 2
447 1
448 2
449 2
450 1
451 2
452 1
453 1
454 2
455 2
456 1
457 1
458 1
459 1
460 1
461 2
462 2
463 2
464 1
465 2
466 1
467 2
468 1
469 1
470 2
471 1
472 1
473 2
474 2
475 1
476 2
477 2
478 1
479 2
480 1
481 2
482 2
483 1
484 2
485 1
486 1
487 1
488 2
489 1
490 2
491 1
492 2
493 1
494 2
495 2
496 2
497 2
498 1
499 2
500 2
501 2
502 2
503 2
504 1
505 1
506 2
507 1
508 1
509 2
510 2
511 2
512 1
513 2
514 1
515 1
516 2
517 2
518 2
519 2
520 1
521 2
522 1
523 2
524 1
525 1
526 1
527 2
528 1
529 1
530 2
531 1
532 1
533 2
534 1
535 1
536 2
537 2
538 2
539 2
540 2
541 1
542 1
543 1
544 1
545 2
546 2
547 2
548 1
549 1
550 2
551 1
552 1
553 2
554 1
555 2
556 1
557 1
558 2
559 2
560 2
561 2
562 2
563 2
564 1
565 2
566 1
567 1
568 2
569 1
570 2
571 2
572 2
573 2
574 2
575 2
576 2
577 1
578 1
579 2
580 2
581 2
582 2
583 2
584 1
585 1
586 1
587 2
588 1
589 1
590 1
591 2
592 2
593 1
594 1
595 2
596 1
597 1
598 2
599 2
600 1
601 1
602 2
603 2
604 1
605 2
606 2
607 1
608 1
609 2
610 2
611 2
612 2
613 2
614 2
615 2
616 1
617 1
618 2
619 2
620 1
621 2
622 2
623 1
624 1
625 1
626 2
627 1
628 1
629 1
630 1
631 2
632 2
633 2
634 2
635 2
636 2
637 2
638 2
639 2
640 2
641 1
642 2
643 2
644 2
645 1
646 1
647 1
648 1
649 2
650 2
651 1
652 2
653 1
654 2
655 2
656 1
657 1
658 2
659 2
660 1
661 2
662 2
663 1
664 2
665 2
666 2
667 1
668 1
669 1
670 1
671 1
672 2
673 1
674 2
675 2
676 1
677 2
678 1
679 2
680 1
681 2
682 2
683 1
684 1
685 1
686 2
687 2
688 2
689 1
690 2
691 1
692 1
693 1
694 2
695 2
696 1
697 1
698 2
699 1
700 1
701 1
702 1
703 2
704 1
705 1
706 1
707 1
708 1
709 1
710 1
711 1
712 2
713 2
714 1
715 1
716 2
717 1
718 2
719 2
720 2
721 2
722 2
723 2
724 1
725 1
726 2
727 2
728 1
729 2
730 1
731 2
732 2
733 2
734 2
735 2
736 2
737 2
738 2
739 2
740 2
741 2
742 1
743 1
744 1
745 2
746 2
747 1
748 2
749 1
750 1
751 2
752 1
753 2
754 1
755 2
756 1
757 1
758 2
759 1
760 2
761 1
762 1
763 2
764 1
765 2
766 1
767 1
768 1
769 1
770 1
771 2
772 1
773 2
774 2
775 2
776 1
777 2
778 2
779 2
780 2
781 2
782 1
783 1
784 1
785 1
786 2
787 1
788 1
789 2
790 2
791 1
792 2
793 2
794 1
795 1
796 1
797 1
798 1
799 2
800 1
801 2
802 2
803 2
804 1
805 2
806 1
807 1
808 2
809 1
810 1
811 1
812 1
813 1
814 2
815 1
816 1
817 2
818 1
819 2
820 1
821 1
822 2
823 2
824 1
825 2
826 2
827 2
828 1
829 2
830 2
831 2
832 1
833 1
834 2
835 1
836 2
837 1
838 2
839 2
840 2
841 2
842 2
843 1
844 1
845 1
846 1
847 2
848 1
849 2
850 1
851 1
852 2
853 2
854 2
855 1
856 2
857 1
858 2
859 2
860 1
861 1
862 2
863 1
864 2
865 2
866 1
867 1
868 1
869 1
870 2
871 2
872 2
873 2
874 2
875 1
876 1
877 2
878 1
879 2
880 1
881 2
882 1
883 1
884 1
885 1
886 1
887 2
888 2
889 2
890 2
891 2
892 1
893 1
894 2
895 2
896 1
897 1
898 1
899 2
900 2
901 2
902 2
903 1
904 1
905 2
906 1
907 2
908 2
909 2
910 2
911 1
912 1
913 1
914 1
915 2
916 1
917 2
918 2
919 2
920 1
921 2
922 2
923 2
924 2
925 1
926 1
927 2
928 2
929 1
930 2
931 2
932 2
933 1
934 2
935 2
936 1
937 1
938 2
939 1
940 1
941 1
942 1
943 1
944 2
945 1
946 2
947 1
948 1
949 1
950 2
951 2
952 1
953 1
954 2
955 1
956 1
957 1
958 2
959 2
960 2
961 1
962 1
963 2
964 2
965 1
966 1
967 2
968 2
969 1
970 2
971 2
972 2
973 1
974 2
975 1
976 2
977 2
978 2
979 2
980 1
981 1
982 1
983 2
984 2
985 2
986 1
987 2
988 1
989 2
990 2
991 1
992 1
993 2
994 2
995 1
996 2
997 2
998 2
999 1
1000 2
